letting n =  10
letting blocks =  [[1, 2], [1, 3], [1, 6], [2, 2], [2, 4], [2, 9], [3, 1], [3, 3], [3, 8], [4, 3], [4, 4], [4, 6], [4, 9], [5, 1], [5, 2], [5, 5], [5, 7], [6, 2], [6, 4], [6, 6], [6, 9], [6, 10], [7, 5], [7, 6], [8, 3], [8, 4], [8, 5], [8, 9], [8, 10], [9, 1], [9, 3], [9, 6], [9, 10], [10, 1], [10, 4], [10, 6]]
